NAME : LPS-n20-m363
COMMENT : (Lartu-Peter-Santi Plot, instance 7163 out of 39200. 20 customers.)
TYPE : CVRP
DIMENSION : 20
EDGE_WEIGHT_TYPE : EUC_2D
CAPACITY : 97
NODE_COORD_SECTION
 1 48 71
 2 17 13
 3 41 63
 4 0 99
 5 19 95
 6 68 2
 7 32 47
 8 88 95
 9 18 7
 10 13 54
 11 13 22
 12 50 83
 13 46 29
 14 3 15
 15 74 95
 16 97 97
 17 35 30
 18 24 5
 19 34 90
 20 77 52
DEMAND_SECTION
1 0
2 23
3 22
4 38
5 44
6 72
7 70
8 66
9 67
10 64
11 30
12 39
13 77
14 28
15 32
16 50
17 40
18 67
19 86
20 80
DEPOT_SECTION
 1
 -1
EOF
